25606.82
0 80 12 62 51 91 65 27 94 66 90 93 41 68 45 85 67 73 26 99 38 9 6 56 33 7 1 92 4 71 72 37 3 86 96 30 28 14 29 87 69 79 24 49 5 75 11 54 16 19 88 89 18 98 35 17 59 2 22 34 42 60 52 77 40 46 48 57 78 25 8 81 47 44 50 70 39 61 20 58 95 74 21 83 76 10 84 43 23 15 36 53 55 64 82 32 63 13 31 97